19
15
13 6 5 18 15 16 3 9 2 7 12 17
9 5 2 10 15 14 17 4 12 11 3 13 16 18 7 0 8 1
3 9 18 5 12 1 0 4 14 17 16
15 10 17 7 9
10 9 6 17 1 5 2 3
0 10 7 5 4 14
18 4 1 2 10 9 0 12 8 15 13 5 3
8 16 12 14 5 4 18
12 8 13 10 0 3 11
3 9 1 10 14 7 6 5 13 12 17 18 0 8 2 4 15
17 18 11 4 8 3 9
1 18 17 9 5 8 13
8 0 6 13 16 1 7 4 17 14 18 3
2 18 7 4 16 11
0 6 2 5 4 17 1
